# 68362
param k := 6;
param n := 60;
param s := 1;
set E :=  (0,9) (1,22) (1,32) (2,26) (2,35) (3,13) (3,50) (4,58) (4,59) (5,20) (6,43) (7,30) (7,38) (8,19) (8,38) (8,47) (9,34) (9,43) (10,14) (10,31) (11,24) (11,39) (12,16) (13,15) (13,17) (13,34) (13,39) (13,47) (13,53) (13,58) (15,32) (15,36) (16,51) (16,57) (17,33) (17,41) (18,20) (18,39) (18,56) (20,28) (20,38) (20,42) (21,27) (22,52) (23,45) (23,49) (25,30) (27,47) (29,47) (30,36) (31,38) (31,55) (35,43) (37,46) (37,50) (38,44) (40,59) (45,48) (45,54) (45,55) (52,57);